130
85
42
74
66
2
119
49
64
15
61
22
64
7
42
73
70
24
48
28
110
87
79
35
40
91
41
98
61
63
126
71
128
126
42
42
87
24
75
55
69
107
11
34
50
15
11
107
56
42
131
68
60
89
59
29
4
83
1
71
112
98
30
95
50
81
96
104
125
54
43
121
27
109
127
14
10
85
48
75
105
93
16
103
43
19
99
4
64
118
91
30
117
29
75
97
56
4
15
86
